variable        NSTEPS1         equal 50000
variable        DUMP_FREQ       equal 5
variable        TEMP            equal 300
variable        SEED1           equal 41939
variable        SEED2           equal 89468
variable        TAU_T           equal 0.1
variable        TAU_P           equal 0.01
variable        TIMESTEP        equal 0.001
variable        PRESS           equal 1.01325 

units           metal
boundary        p p p

#restart         50000  lmp.restart
atom_style      atomic
neigh_modify    delay 10 every 1

#read_restart   restart.lmp
read_data       Li3PS3O.lmp

#mass    1      6.941
#mass    2      30.973762
#mass    3      32.065

pair_style deepmd /leonardo/home/userexternal/latanasi/LAMMPS/minimize/Li3PS3O/cpr_hbrd_e3_LPSO.pb 

pair_coeff * * Li P S O

# TIMESTEP
#timestep        ${TIMESTEP}  #ps
thermo_style    custom step pe density press vol 
#thermo_modify   flush yes

# DUMP
dump            myDump all xyz ${DUMP_FREQ} dump.0.xyz
dump_modify     myDump append yes element Li P S O
dump            1 all custom ${DUMP_FREQ} unwrapped_trj.xyz element xu yu zu
dump_modify     1 append yes element Li P S O
dump_modify     1 sort id

# minimize-P
fix              1 all box/relax aniso ${PRESS} 

#fix             dpgen_plm all plumed plumedfile plumed.dat  outfile output.plumed
#fix             1 all nve
#fix             2 all temp/csvr ${TEMP} ${TEMP} ${TAU_T} ${SEED2}

#run             ${NSTEPS1}
minimize        1.0e-9 1.0e-9 9000 9000
min_style       cg

#unfix dpgen_plm
unfix 1
#unfix 2

#write_restart  restart.lmp
